(set-info :source |printed by MathSAT|)
(declare-fun |.x{287}| () Int)
(declare-fun |.y{7}| () Int)
(declare-fun |.y{6}| () Int)
(declare-fun |.y{8}| () Int)
(declare-fun |.x{288}| () (Array Int Int))
(declare-fun |.y{9}| () (Array Int Int))
(declare-fun |.x{286}| () Int)
(declare-fun |.y{10}| () Int)
(declare-fun |.x{283}| () Int)
(declare-fun |.y{11}| () Int)
(declare-fun |.loc{5}| () Bool)
(declare-fun |.loc{9}| () Bool)
(declare-fun |.loc{6}| () Bool)
(declare-fun |.loc{10}| () Bool)
(declare-fun |.loc{7}| () Bool)
(declare-fun |.loc{11}| () Bool)
(declare-fun |.loc{8}| () Bool)
(declare-fun |.loc{12}| () Bool)
(declare-fun |.x{289}| () Int)
(define-fun .def_18 () Bool (! |.loc{5}| :next |.loc{9}|))
(define-fun .def_79 () Bool (not .def_18))
(define-fun .def_20 () Bool (! |.loc{6}| :next |.loc{10}|))
(define-fun .def_56 () Bool (not .def_20))
(define-fun .def_332 () Bool (and .def_56 .def_79))
(define-fun .def_22 () Bool (! |.loc{7}| :next |.loc{11}|))
(define-fun .def_65 () Bool (not .def_22))
(define-fun .def_333 () Bool (and .def_65 .def_332))
(define-fun .def_24 () Bool (! |.loc{8}| :next |.loc{12}|))
(define-fun .def_58 () Bool (not .def_24))
(define-fun .def_334 () Bool (! (and .def_58 .def_333) :init true))
(define-fun .def_45 () Bool (not |.loc{11}|))
(define-fun .def_316 () Bool (and |.loc{12}| .def_45))
(define-fun .def_12 () (Array Int Int) (! |.x{288}| :next |.y{9}|))
(define-fun .def_286 () Int (select .def_12 |.x{289}|))
(define-fun .def_287 () Bool (= .def_286 49))
(define-fun .def_306 () Bool (not .def_287))
(define-fun .def_14 () Int (! |.x{286}| :next |.y{10}|))
(define-fun .def_16 () Int (! |.x{283}| :next |.y{11}|))
(define-fun .def_277 () Bool (<= .def_16 .def_14))
(define-fun .def_278 () Bool (not .def_277))
(define-fun .def_32 () Int (* (- 1) |.x{289}|))
(define-fun .def_269 () Int (+ .def_14 .def_32))
(define-fun .def_8 () Int (! |.x{287}| :next |.y{7}|))
(define-fun .def_270 () Int (+ .def_8 .def_269))
(define-fun .def_271 () Bool (= .def_270 0))
(define-fun .def_300 () Bool (and .def_271 .def_278))
(define-fun .def_301 () Bool (and |.loc{10}| .def_300))
(define-fun .def_42 () Bool (<= .def_8 0))
(define-fun .def_40 () Bool (<= |.x{289}| 0))
(define-fun .def_41 () Bool (not .def_40))
(define-fun .def_43 () Bool (or .def_41 .def_42))
(define-fun .def_302 () Bool (and .def_43 .def_301))
(define-fun .def_86 () Bool (not |.loc{9}|))
(define-fun .def_303 () Bool (and .def_86 .def_302))
(define-fun .def_47 () Bool (not .def_42))
(define-fun .def_304 () Bool (and .def_47 .def_303))
(define-fun .def_305 () Bool (and .def_47 .def_304))
(define-fun .def_307 () Bool (and .def_305 .def_306))
(define-fun .def_308 () Bool (and .def_18 .def_307))
(define-fun .def_296 () Bool (= |.y{10}| 0))
(define-fun .def_291 () Bool (= .def_14 |.y{11}|))
(define-fun .def_103 () Bool (= .def_12 |.y{9}|))
(define-fun .def_292 () Bool (and .def_103 .def_291))
(define-fun .def_293 () Bool (and |.loc{9}| .def_292))
(define-fun .def_49 () Bool (not |.loc{10}|))
(define-fun .def_294 () Bool (and .def_49 .def_293))
(define-fun .def_295 () Bool (and .def_79 .def_294))
(define-fun .def_297 () Bool (and .def_295 .def_296))
(define-fun .def_10 () Int (! |.y{6}| :next |.y{8}|))
(define-fun .def_62 () Bool (<= .def_14 .def_10))
(define-fun .def_298 () Bool (and .def_62 .def_297))
(define-fun .def_67 () Bool (= .def_8 |.y{7}|))
(define-fun .def_299 () Bool (and .def_67 .def_298))
(define-fun .def_309 () Bool (or .def_299 .def_308))
(define-fun .def_280 () Bool (= .def_16 |.y{11}|))
(define-fun .def_273 () Int (* (- 1) |.y{10}|))
(define-fun .def_274 () Int (+ .def_14 .def_273))
(define-fun .def_275 () Bool (= .def_274 (- 1)))
(define-fun .def_272 () Bool (and .def_103 .def_271))
(define-fun .def_276 () Bool (and .def_272 .def_275))
(define-fun .def_279 () Bool (and .def_276 .def_278))
(define-fun .def_281 () Bool (and .def_279 .def_280))
(define-fun .def_282 () Bool (and |.loc{9}| .def_281))
(define-fun .def_283 () Bool (and .def_43 .def_282))
(define-fun .def_284 () Bool (and .def_47 .def_283))
(define-fun .def_285 () Bool (and .def_49 .def_284))
(define-fun .def_288 () Bool (and .def_285 .def_287))
(define-fun .def_289 () Bool (and .def_18 .def_288))
(define-fun .def_290 () Bool (and .def_67 .def_289))
(define-fun .def_310 () Bool (or .def_290 .def_309))
(define-fun .def_311 () Bool (and .def_24 .def_310))
(define-fun .def_312 () Bool (and .def_56 .def_311))
(define-fun .def_313 () Bool (and .def_65 .def_312))
(define-fun .def_69 () Bool (= |.y{8}| 0))
(define-fun .def_104 () Bool (and .def_69 .def_103))
(define-fun .def_36 () Bool (= .def_14 |.y{10}|))
(define-fun .def_105 () Bool (and .def_36 .def_104))
(define-fun .def_259 () Bool (and .def_86 .def_105))
(define-fun .def_260 () Bool (and .def_49 .def_259))
(define-fun .def_261 () Bool (and .def_18 .def_260))
(define-fun .def_262 () Bool (and .def_20 .def_261))
(define-fun .def_263 () Bool (and .def_22 .def_262))
(define-fun .def_264 () Bool (and .def_58 .def_263))
(define-fun .def_265 () Bool (and .def_62 .def_264))
(define-fun .def_266 () Bool (and .def_67 .def_265))
(define-fun .def_314 () Bool (or .def_266 .def_313))
(define-fun .def_253 () (Array Int Int) (store .def_12 |.x{289}| 49))
(define-fun .def_254 () Bool (= |.y{9}| .def_253))
(define-fun .def_33 () Int (+ .def_10 .def_32))
(define-fun .def_34 () Int (+ .def_8 .def_33))
(define-fun .def_35 () Bool (= .def_34 0))
(define-fun .def_37 () Bool (and .def_35 .def_36))
(define-fun .def_244 () Bool (and .def_37 .def_86))
(define-fun .def_245 () Bool (and .def_43 .def_244))
(define-fun .def_246 () Bool (and .def_47 .def_245))
(define-fun .def_247 () Bool (and .def_49 .def_246))
(define-fun .def_248 () Bool (and .def_79 .def_247))
(define-fun .def_52 () Int (* (- 1) |.y{8}|))
(define-fun .def_53 () Int (+ .def_10 .def_52))
(define-fun .def_54 () Bool (= .def_53 (- 1)))
(define-fun .def_249 () Bool (and .def_54 .def_248))
(define-fun .def_250 () Bool (and .def_24 .def_249))
(define-fun .def_251 () Bool (and .def_56 .def_250))
(define-fun .def_255 () Bool (and .def_251 .def_254))
(define-fun .def_63 () Bool (not .def_62))
(define-fun .def_256 () Bool (and .def_63 .def_255))
(define-fun .def_257 () Bool (and .def_65 .def_256))
(define-fun .def_258 () Bool (and .def_67 .def_257))
(define-fun .def_315 () Bool (or .def_258 .def_314))
(define-fun .def_317 () Bool (and .def_315 .def_316))
(define-fun .def_133 () Bool (and |.loc{9}| .def_105))
(define-fun .def_134 () Bool (and |.loc{10}| .def_133))
(define-fun .def_236 () Bool (and |.loc{11}| .def_134))
(define-fun .def_237 () Bool (and .def_79 .def_236))
(define-fun .def_238 () Bool (and .def_20 .def_237))
(define-fun .def_239 () Bool (and .def_22 .def_238))
(define-fun .def_240 () Bool (and .def_58 .def_239))
(define-fun .def_60 () Bool (not |.loc{12}|))
(define-fun .def_241 () Bool (and .def_60 .def_240))
(define-fun .def_242 () Bool (and .def_62 .def_241))
(define-fun .def_243 () Bool (and .def_67 .def_242))
(define-fun .def_318 () Bool (or .def_243 .def_317))
(define-fun .def_225 () (Array Int Int) (store .def_12 |.x{289}| 48))
(define-fun .def_226 () Bool (= |.y{9}| .def_225))
(define-fun .def_116 () Bool (and |.loc{9}| .def_37))
(define-fun .def_117 () Bool (and |.loc{10}| .def_116))
(define-fun .def_221 () Bool (and |.loc{11}| .def_117))
(define-fun .def_222 () Bool (and .def_43 .def_221))
(define-fun .def_223 () Bool (and .def_47 .def_222))
(define-fun .def_227 () Bool (and .def_223 .def_226))
(define-fun .def_228 () Bool (and .def_18 .def_227))
(define-fun .def_229 () Bool (and .def_20 .def_228))
(define-fun .def_230 () Bool (and .def_22 .def_229))
(define-fun .def_231 () Bool (and .def_54 .def_230))
(define-fun .def_232 () Bool (and .def_58 .def_231))
(define-fun .def_233 () Bool (and .def_60 .def_232))
(define-fun .def_234 () Bool (and .def_63 .def_233))
(define-fun .def_235 () Bool (and .def_67 .def_234))
(define-fun .def_319 () Bool (or .def_235 .def_318))
(define-fun .def_106 () Bool (and |.loc{10}| .def_105))
(define-fun .def_212 () Bool (and |.loc{11}| .def_106))
(define-fun .def_213 () Bool (and .def_86 .def_212))
(define-fun .def_214 () Bool (and .def_18 .def_213))
(define-fun .def_215 () Bool (and .def_22 .def_214))
(define-fun .def_216 () Bool (and .def_58 .def_215))
(define-fun .def_217 () Bool (and .def_56 .def_216))
(define-fun .def_218 () Bool (and .def_60 .def_217))
(define-fun .def_219 () Bool (and .def_62 .def_218))
(define-fun .def_220 () Bool (and .def_67 .def_219))
(define-fun .def_320 () Bool (or .def_220 .def_319))
(define-fun .def_206 () (Array Int Int) (store .def_12 |.x{289}| 47))
(define-fun .def_207 () Bool (= |.y{9}| .def_206))
(define-fun .def_85 () Bool (and |.loc{10}| .def_37))
(define-fun .def_196 () Bool (and |.loc{11}| .def_85))
(define-fun .def_197 () Bool (and .def_86 .def_196))
(define-fun .def_198 () Bool (and .def_43 .def_197))
(define-fun .def_199 () Bool (and .def_47 .def_198))
(define-fun .def_200 () Bool (and .def_79 .def_199))
(define-fun .def_201 () Bool (and .def_20 .def_200))
(define-fun .def_202 () Bool (and .def_22 .def_201))
(define-fun .def_203 () Bool (and .def_54 .def_202))
(define-fun .def_204 () Bool (and .def_58 .def_203))
(define-fun .def_208 () Bool (and .def_204 .def_207))
(define-fun .def_209 () Bool (and .def_60 .def_208))
(define-fun .def_210 () Bool (and .def_63 .def_209))
(define-fun .def_211 () Bool (and .def_67 .def_210))
(define-fun .def_321 () Bool (or .def_211 .def_320))
(define-fun .def_187 () Bool (and |.loc{11}| .def_133))
(define-fun .def_188 () Bool (and .def_49 .def_187))
(define-fun .def_189 () Bool (and .def_79 .def_188))
(define-fun .def_190 () Bool (and .def_22 .def_189))
(define-fun .def_191 () Bool (and .def_58 .def_190))
(define-fun .def_192 () Bool (and .def_56 .def_191))
(define-fun .def_193 () Bool (and .def_60 .def_192))
(define-fun .def_194 () Bool (and .def_62 .def_193))
(define-fun .def_195 () Bool (and .def_67 .def_194))
(define-fun .def_322 () Bool (or .def_195 .def_321))
(define-fun .def_171 () (Array Int Int) (store .def_12 |.x{289}| 46))
(define-fun .def_172 () Bool (= |.y{9}| .def_171))
(define-fun .def_173 () Bool (and .def_37 .def_172))
(define-fun .def_174 () Bool (and |.loc{9}| .def_173))
(define-fun .def_175 () Bool (and |.loc{11}| .def_174))
(define-fun .def_176 () Bool (and .def_43 .def_175))
(define-fun .def_177 () Bool (and .def_47 .def_176))
(define-fun .def_178 () Bool (and .def_49 .def_177))
(define-fun .def_179 () Bool (and .def_18 .def_178))
(define-fun .def_180 () Bool (and .def_22 .def_179))
(define-fun .def_181 () Bool (and .def_54 .def_180))
(define-fun .def_182 () Bool (and .def_58 .def_181))
(define-fun .def_183 () Bool (and .def_56 .def_182))
(define-fun .def_184 () Bool (and .def_60 .def_183))
(define-fun .def_185 () Bool (and .def_63 .def_184))
(define-fun .def_186 () Bool (and .def_67 .def_185))
(define-fun .def_323 () Bool (or .def_186 .def_322))
(define-fun .def_160 () Bool (and |.loc{11}| .def_105))
(define-fun .def_161 () Bool (and .def_86 .def_160))
(define-fun .def_162 () Bool (and .def_49 .def_161))
(define-fun .def_163 () Bool (and .def_18 .def_162))
(define-fun .def_164 () Bool (and .def_20 .def_163))
(define-fun .def_165 () Bool (and .def_58 .def_164))
(define-fun .def_166 () Bool (and .def_60 .def_165))
(define-fun .def_167 () Bool (and .def_62 .def_166))
(define-fun .def_168 () Bool (and .def_65 .def_167))
(define-fun .def_169 () Bool (and .def_67 .def_168))
(define-fun .def_324 () Bool (or .def_169 .def_323))
(define-fun .def_147 () (Array Int Int) (store .def_12 |.x{289}| 45))
(define-fun .def_148 () Bool (= |.y{9}| .def_147))
(define-fun .def_143 () Bool (and |.loc{11}| .def_37))
(define-fun .def_144 () Bool (and .def_86 .def_143))
(define-fun .def_145 () Bool (and .def_43 .def_144))
(define-fun .def_149 () Bool (and .def_145 .def_148))
(define-fun .def_150 () Bool (and .def_47 .def_149))
(define-fun .def_151 () Bool (and .def_49 .def_150))
(define-fun .def_152 () Bool (and .def_79 .def_151))
(define-fun .def_153 () Bool (and .def_22 .def_152))
(define-fun .def_154 () Bool (and .def_54 .def_153))
(define-fun .def_155 () Bool (and .def_58 .def_154))
(define-fun .def_156 () Bool (and .def_56 .def_155))
(define-fun .def_157 () Bool (and .def_60 .def_156))
(define-fun .def_158 () Bool (and .def_63 .def_157))
(define-fun .def_159 () Bool (and .def_67 .def_158))
(define-fun .def_325 () Bool (or .def_159 .def_324))
(define-fun .def_135 () Bool (and .def_45 .def_134))
(define-fun .def_136 () Bool (and .def_79 .def_135))
(define-fun .def_137 () Bool (and .def_20 .def_136))
(define-fun .def_138 () Bool (and .def_58 .def_137))
(define-fun .def_139 () Bool (and .def_60 .def_138))
(define-fun .def_140 () Bool (and .def_62 .def_139))
(define-fun .def_141 () Bool (and .def_65 .def_140))
(define-fun .def_142 () Bool (and .def_67 .def_141))
(define-fun .def_326 () Bool (or .def_142 .def_325))
(define-fun .def_122 () (Array Int Int) (store .def_12 |.x{289}| 44))
(define-fun .def_123 () Bool (= |.y{9}| .def_122))
(define-fun .def_118 () Bool (and .def_43 .def_117))
(define-fun .def_119 () Bool (and .def_45 .def_118))
(define-fun .def_120 () Bool (and .def_47 .def_119))
(define-fun .def_124 () Bool (and .def_120 .def_123))
(define-fun .def_125 () Bool (and .def_18 .def_124))
(define-fun .def_126 () Bool (and .def_20 .def_125))
(define-fun .def_127 () Bool (and .def_54 .def_126))
(define-fun .def_128 () Bool (and .def_58 .def_127))
(define-fun .def_129 () Bool (and .def_60 .def_128))
(define-fun .def_130 () Bool (and .def_63 .def_129))
(define-fun .def_131 () Bool (and .def_65 .def_130))
(define-fun .def_132 () Bool (and .def_67 .def_131))
(define-fun .def_327 () Bool (or .def_132 .def_326))
(define-fun .def_107 () Bool (and .def_86 .def_106))
(define-fun .def_108 () Bool (and .def_45 .def_107))
(define-fun .def_109 () Bool (and .def_18 .def_108))
(define-fun .def_110 () Bool (and .def_56 .def_109))
(define-fun .def_111 () Bool (and .def_58 .def_110))
(define-fun .def_112 () Bool (and .def_60 .def_111))
(define-fun .def_113 () Bool (and .def_62 .def_112))
(define-fun .def_114 () Bool (and .def_65 .def_113))
(define-fun .def_115 () Bool (and .def_67 .def_114))
(define-fun .def_328 () Bool (or .def_115 .def_327))
(define-fun .def_94 () (Array Int Int) (store .def_12 |.x{289}| 43))
(define-fun .def_95 () Bool (= |.y{9}| .def_94))
(define-fun .def_87 () Bool (and .def_85 .def_86))
(define-fun .def_88 () Bool (and .def_43 .def_87))
(define-fun .def_89 () Bool (and .def_45 .def_88))
(define-fun .def_90 () Bool (and .def_47 .def_89))
(define-fun .def_91 () Bool (and .def_79 .def_90))
(define-fun .def_92 () Bool (and .def_20 .def_91))
(define-fun .def_96 () Bool (and .def_92 .def_95))
(define-fun .def_97 () Bool (and .def_54 .def_96))
(define-fun .def_98 () Bool (and .def_58 .def_97))
(define-fun .def_99 () Bool (and .def_60 .def_98))
(define-fun .def_100 () Bool (and .def_63 .def_99))
(define-fun .def_101 () Bool (and .def_65 .def_100))
(define-fun .def_102 () Bool (and .def_67 .def_101))
(define-fun .def_329 () Bool (or .def_102 .def_328))
(define-fun .def_76 () Bool (<= |.y{10}| 0))
(define-fun .def_77 () Bool (not .def_76))
(define-fun .def_72 () Bool (<= |.y{7}| 0))
(define-fun .def_73 () Bool (not .def_72))
(define-fun .def_70 () Bool (and |.loc{9}| .def_69))
(define-fun .def_71 () Bool (and .def_45 .def_70))
(define-fun .def_74 () Bool (and .def_71 .def_73))
(define-fun .def_75 () Bool (and .def_49 .def_74))
(define-fun .def_78 () Bool (and .def_75 .def_77))
(define-fun .def_80 () Bool (and .def_78 .def_79))
(define-fun .def_81 () Bool (and .def_56 .def_80))
(define-fun .def_82 () Bool (and .def_58 .def_81))
(define-fun .def_83 () Bool (and .def_60 .def_82))
(define-fun .def_84 () Bool (and .def_65 .def_83))
(define-fun .def_330 () Bool (or .def_84 .def_329))
(define-fun .def_28 () (Array Int Int) (store .def_12 |.x{289}| 42))
(define-fun .def_29 () Bool (= |.y{9}| .def_28))
(define-fun .def_38 () Bool (and .def_29 .def_37))
(define-fun .def_39 () Bool (and |.loc{9}| .def_38))
(define-fun .def_44 () Bool (and .def_39 .def_43))
(define-fun .def_46 () Bool (and .def_44 .def_45))
(define-fun .def_48 () Bool (and .def_46 .def_47))
(define-fun .def_50 () Bool (and .def_48 .def_49))
(define-fun .def_51 () Bool (and .def_18 .def_50))
(define-fun .def_55 () Bool (and .def_51 .def_54))
(define-fun .def_57 () Bool (and .def_55 .def_56))
(define-fun .def_59 () Bool (and .def_57 .def_58))
(define-fun .def_61 () Bool (and .def_59 .def_60))
(define-fun .def_64 () Bool (and .def_61 .def_63))
(define-fun .def_66 () Bool (and .def_64 .def_65))
(define-fun .def_68 () Bool (and .def_66 .def_67))
(define-fun .def_331 () Bool (! (or .def_68 .def_330) :trans true))
(define-fun .def_335 () Bool (and .def_20 .def_79))
(define-fun .def_336 () Bool (and .def_65 .def_335))
(define-fun .def_337 () Bool (and .def_24 .def_336))
(define-fun .def_338 () Bool (! (not .def_337) :invar-property 0))
(assert true)
